\ File written by Highs .lp filereader
minimize
 obj: +1 x1 +4 x2 +6 x3 +4 x4 +1 x5 +1 x6 +1 x7 +4 x8 +6 x9 +4 x10 +4 x11 +1 x12 +6 x13 +4 x14 +4 x15 +6 x16 +1 x17 +4 x18 +4 x19 +1 x20 +6 x21 +4 x22 +4 x23 +6 x24 +6 x25 +4 x26 +4 x27 +6 x28 +1 x29 +4 x30 +4 x31 +1 x32 +6 x33 +4 x34 +6 x35 +4 x36 +4 x37 +6 x38 +6 x39 +4 x40 +4 x41 +6 x42 +4 x43 +6 x44 +1 x45 +4 x46 +4 x47 +1 x48 +6 x49 +4 x50 +6 x51 +4 x52 +4 x53 +6 x54 +6 x55 +4 x56 +4 x57 +6 x58 +4 x59 +6 x60 +1 x61 +4 x62 +0 x63 +0 x64 +0 x65 +0 x66 +0 x67 +0 x68 +0 x69 +0 x70 +0 x71 
st
 con1: +1 x1 +4 x2 +6 x3 +4 x4 +1 x7 +4 x8 +6 x9 +4 x19 +1 x20 +6 x21 +4 x22 +4 x47 +1 x48 +6 x49 +4 x50 = +1
 con2: +4 x2 +12 x3 +12 x4 +4 x5 +4 x8 +12 x9 +12 x10 +4 x19 +12 x21 +4 x22 +12 x23 +12 x24 +4 x31 +12 x33 +4 x34 +12 x35 +4 x36 +12 x37 +12 x38 +4 x47 +12 x49 +4 x50 +12 x51 +4 x52 +12 x53 +12 x54 = +4
 con3: +6 x3 +12 x4 +6 x5 +6 x6 +6 x9 +12 x10 +6 x13 +12 x15 +6 x16 +6 x17 +12 x18 +6 x21 +12 x23 +6 x24 +6 x25 +12 x27 +6 x28 +6 x29 +12 x30 +6 x33 +6 x35 +12 x37 +6 x38 +6 x39 +12 x41 +6 x42 +12 x43 +6 x44 +6 x45 +12 x46 +6 x49 +6 x51 +12 x53 +6 x54 +6 x55 +12 x57 +6 x58 +12 x59 +6 x60 +6 x61 +12 x62 = +6
 con4: +1 x7 +4 x8 +6 x9 +4 x10 +1 x20 +4 x22 +6 x24 +1 x32 +4 x34 +4 x36 +6 x38 +1 x48 +4 x50 +4 x52 +6 x54 = +1
 con5: +1 x1 +4 x2 +6 x3 +1 x7 +4 x8 +4 x11 +1 x12 +6 x13 +4 x14 +4 x15 +6 x16 +4 x19 +1 x20 +6 x25 +4 x26 = +1
 con6: +4 x2 +12 x3 +12 x4 +4 x8 +12 x9 +4 x11 +12 x13 +4 x14 +12 x15 +12 x16 +4 x17 +12 x18 +4 x19 +12 x21 +4 x22 +12 x25 +4 x26 +12 x27 +12 x28 +4 x47 +12 x49 +4 x50 +12 x55 +4 x56 +12 x57 +12 x58 = +4
 con7: +1 x7 +4 x8 +6 x9 +1 x12 +4 x14 +6 x16 +4 x18 +1 x20 +4 x22 +4 x26 +6 x28 +1 x48 +4 x50 +4 x56 +6 x58 = +1
 con8: +4 x6 +4 x8 +12 x9 +12 x10 +4 x14 +12 x16 +12 x18 +4 x22 +12 x24 +4 x26 +12 x28 +12 x30 +4 x34 +4 x36 +12 x38 +4 x40 +12 x42 +12 x44 +12 x46 +4 x50 +4 x52 +12 x54 +4 x56 +12 x58 +12 x60 +12 x62 = +4
 con9: +1 x1 +4 x2 +1 x7 +6 x21 +4 x22 +4 x23 +6 x24 +4 x31 +1 x32 +6 x33 +4 x34 +4 x47 +1 x48 +6 x51 +4 x52 = +1
 con10: +1 x1 +4 x2 +1 x7 +4 x11 +1 x12 +6 x13 +4 x14 +6 x21 +4 x22 +4 x27 +6 x28 +4 x47 +1 x48 +6 x55 +4 x56 = +1
 con11: +4 x2 +4 x11 +12 x13 +4 x14 +12 x21 +4 x22 +12 x23 +12 x24 +12 x27 +12 x28 +4 x29 +12 x30 +4 x31 +12 x33 +4 x34 +12 x39 +4 x40 +12 x41 +12 x42 +4 x47 +12 x51 +4 x52 +12 x55 +4 x56 +12 x59 +12 x60 = +4
 con12: +1 x7 +1 x12 +4 x14 +4 x22 +6 x24 +6 x28 +4 x30 +1 x32 +4 x34 +4 x40 +6 x42 +1 x48 +4 x52 +4 x56 +6 x60 = +1
 con13: +1 x1 +4 x2 +6 x3 +1 x7 +4 x8 +4 x19 +1 x20 +4 x31 +1 x32 +6 x33 +4 x34 +6 x35 +4 x36 +4 x37 +6 x38 = +1
 con14: +1 x1 +4 x2 +1 x7 +4 x11 +1 x12 +6 x13 +4 x14 +4 x31 +1 x32 +6 x33 +4 x34 +6 x39 +4 x40 +4 x41 +6 x42 = +1
 con15: +1 x1 +4 x11 +1 x12 +4 x19 +1 x20 +6 x25 +4 x26 +4 x31 +1 x32 +6 x35 +4 x36 +6 x39 +4 x40 +4 x43 +6 x44 = +1
 con16: +4 x2 +12 x3 +4 x8 +4 x11 +12 x13 +4 x14 +12 x15 +12 x16 +4 x19 +12 x25 +4 x26 +4 x31 +12 x33 +4 x34 +12 x35 +4 x36 +12 x37 +12 x38 +12 x39 +4 x40 +12 x41 +12 x42 +12 x43 +12 x44 +4 x45 +12 x46 = +4
 con17: +1 x7 +4 x8 +1 x12 +4 x14 +6 x16 +1 x20 +4 x26 +1 x32 +4 x34 +4 x36 +6 x38 +4 x40 +6 x42 +6 x44 +4 x46 = +1
 con18: +1 x1 +4 x19 +1 x20 +4 x31 +1 x32 +6 x35 +4 x36 +4 x47 +1 x48 +6 x49 +4 x50 +6 x51 +4 x52 +4 x53 +6 x54 = +1
 con19: +1 x1 +4 x11 +1 x12 +4 x19 +1 x20 +6 x25 +4 x26 +4 x47 +1 x48 +6 x49 +4 x50 +6 x55 +4 x56 +4 x57 +6 x58 = +1
 con20: +1 x1 +4 x11 +1 x12 +4 x31 +1 x32 +6 x39 +4 x40 +4 x47 +1 x48 +6 x51 +4 x52 +6 x55 +4 x56 +4 x59 +6 x60 = +1
 con21: +4 x11 +4 x19 +12 x25 +4 x26 +4 x31 +12 x35 +4 x36 +12 x39 +4 x40 +12 x43 +12 x44 +4 x47 +12 x49 +4 x50 +12 x51 +4 x52 +12 x53 +12 x54 +12 x55 +4 x56 +12 x57 +12 x58 +12 x59 +12 x60 +4 x61 +12 x62 = +4
 con22: +1 x12 +1 x20 +4 x26 +1 x32 +4 x36 +4 x40 +6 x44 +1 x48 +4 x50 +4 x52 +6 x54 +4 x56 +6 x58 +6 x60 +4 x62 = +1
 con23: +1 x3 -1 x49 -1 x63 = +0
 con24: +1 x8 -1 x50 -1 x64 = +0
 con25: +1 x13 -1 x55 -1 x65 = +0
 con26: +1 x16 -1 x58 -1 x66 = +0
 con27: +1 x34 -1 x52 -1 x67 = +0
 con28: +1 x37 -1 x53 -1 x68 = +0
 con29: +1 x38 -1 x54 -1 x69 = +0
 con30: +1 x41 -1 x59 -1 x70 = +0
 con31: +1 x42 -1 x60 -1 x71 = +0
bounds
 +0 <= x1 <= +1
 +0 <= x2 <= +0
 +0 <= x3 <= +1
 +0 <= x4 <= +1
 +0 <= x5 <= +0
 +0 <= x6 <= +0
 +0 <= x7 <= +0
 +0 <= x8 <= +0
 +0 <= x9 <= +0
 +0 <= x10 <= +0
 +0 <= x11 <= +0
 +0 <= x12 <= +0
 +0 <= x13 <= +1
 +0 <= x14 <= +0
 +0 <= x15 <= +0
 +0 <= x16 <= +1
 +0 <= x17 <= +0
 +0 <= x18 <= +0
 +0 <= x19 <= +0
 +0 <= x20 <= +0
 +0 <= x21 <= +0
 +0 <= x22 <= +1
 +0 <= x23 <= +1
 +0 <= x24 <= +0
 +0 <= x25 <= +1
 +0 <= x26 <= +0
 +0 <= x27 <= +0
 +0 <= x28 <= +1
 +0 <= x29 <= +0
 +0 <= x30 <= +0
 +0 <= x31 <= +0
 +0 <= x32 <= +0
 +0 <= x33 <= +0
 +0 <= x34 <= +1
 +0 <= x35 <= +0
 +0 <= x36 <= +0
 +0 <= x37 <= +1
 +0 <= x38 <= +1
 +0 <= x39 <= +1
 +0 <= x40 <= +0
 +0 <= x41 <= +1
 +0 <= x42 <= +1
 +0 <= x43 <= +0
 +0 <= x44 <= +1
 +0 <= x45 <= +0
 +0 <= x46 <= +0
 +0 <= x47 <= +0
 +0 <= x48 <= +0
 +0 <= x49 <= +1
 +0 <= x50 <= +0
 +0 <= x51 <= +0
 +0 <= x52 <= +1
 +0 <= x53 <= +1
 +0 <= x54 <= +1
 +0 <= x55 <= +1
 +0 <= x56 <= +0
 +0 <= x57 <= +0
 +0 <= x58 <= +1
 +0 <= x59 <= +1
 +0 <= x60 <= +1
 +0 <= x61 <= +0
 +0 <= x62 <= +0
 +0 <= x63 <= +0
 +0 <= x64 <= +0
 +0 <= x65 <= +0
 +0 <= x66 <= +0
 +0 <= x67 <= +0
 +0 <= x68 <= +0
 +0 <= x69 <= +0
 +0 <= x70 <= +0
 +0 <= x71 <= +0
binary
general
semi
end
